c NeuroCodeBench 2.0 CNF formula with verdict Unsat
p cnf 8 40
-1 -4 7 -5 -6 0
1 5 -6 -7 -4 0
1 -5 -3 2 6 0
1 5 -6 7 -2 -3 0
-1 4 3 -8 5 -7 0
-1 -4 7 5 6 -2 8 -3 0
-1 -4 7 -5 6 0
1 5 -6 7 -2 3 0
-1 -4 7 5 6 -2 8 3 0
-1 -4 7 5 6 2 -8 -3 0
-1 -4 7 5 6 2 -8 3 0
-1 4 3 8 7 6 -5 2 0
-1 4 -3 7 0
-1 4 3 8 7 -6 5 0
1 5 6 -7 0
1 5 -6 -7 4 0
-1 4 3 8 7 -6 -5 0
-1 -4 7 5 -6 0
-1 4 3 8 7 6 -5 -2 0
-1 4 3 8 -7 5 -6 0
-1 4 3 8 -7 5 6 0
-1 4 3 -8 5 7 -6 0
-1 4 3 -8 5 7 6 0
1 -5 -3 -2 -6 -4 0
1 5 -6 7 2 8 0
-1 4 3 8 -7 -5 2 -6 0
1 5 6 7 0
-1 4 3 8 -7 -5 -2 0
-1 4 3 8 7 6 5 0
-1 4 3 8 -7 -5 2 6 0
-1 4 -3 -7 0
1 -5 -3 -2 6 0
-1 -4 7 5 6 2 8 0
1 5 -6 7 2 -8 0
-1 -4 7 5 6 -2 -8 0
1 -5 3 0
1 -5 -3 2 -6 0
-1 -4 -7 0
-1 4 3 -8 -5 0
1 -5 -3 -2 -6 4 0
